db/data/5806349812190224732600177472347130910.z3.out
-------------------
2500.206404209
